p cnf 26 69
a 24 6 0
e 1 2 3 4 5 7 8 9 10 11 12 13 14 15 16 17 18 19 20 21 22 23 25 26 0
3 -1 0
3 -2 0
1 2 -3 0
-5 -3 0
-5 4 0
3 -4 5 0
7 1 -8 0
-7 -1 -8 0
7 -1 8 0
-7 1 8 0
-9 -6 0
-9 8 0
6 -8 9 0
-10 3 0
-10 -9 0
-3 9 10 0
11 -9 0
11 -1 0
9 1 -11 0
7 12 -13 0
-7 -12 -13 0
7 -12 13 0
-7 12 13 0
14 -11 0
14 -13 0
11 13 -14 0
-15 -7 0
-15 -3 0
7 3 15 0
-16 6 -17 0
16 -6 -17 0
-16 -6 17 0
16 6 17 0
15 17 -18 0
-15 -17 -18 0
15 -17 18 0
-15 17 18 0
14 -18 -19 0
-14 18 -19 0
14 18 19 0
-14 -18 19 0
-20 10 0
-20 19 0
-10 -19 20 0
-5 20 -21 0
5 -20 -21 0
-5 -20 21 0
5 20 21 0
3 22 -23 0
-3 -22 -23 0
3 -22 23 0
-3 22 23 0
7 -2 -24 0
-7 2 -24 0
7 2 24 0
-7 -2 24 0
25 -23 0
25 -24 0
23 24 -25 0
26 21 0
26 25 0
-21 -25 -26 0
-13 18 -11 -10 -25 9 0
23 6 9 21 15 -17 0
4 -12 -8 -2 0
12 19 -3 0
3 -6 25 -4 0
-15 4 -20 -7 21 18 0
26 0
